Tasks lengths
[40, 52, 52, 58, 64, 65, 67, 68, 69, 77, 78, 83, 89, 90, 94, 96, 98, 102, 102, 104, 113, 115, 116, 124, 133, 139, 146, 146, 149, 153, 177, 179, 224, 264, 276, 283, 297, 391, 396, 467]
12
Set parameter Username
Set parameter Threads to value 1
Academic license - for non-commercial use only - expires 2022-07-11
Set parameter TimeLimit to value 300
Gurobi Optimizer version 9.5.1 build v9.5.1rc2 (linux64)
Thread count: 2 physical cores, 4 logical processors, using up to 1 threads
Optimize a model with 536 rows, 492 columns and 1954 nonzeros
Model fingerprint: 0xe0a85f38
Model has 480 quadratic objective terms
Variable types: 12 continuous, 480 integer (480 binary)
Coefficient statistics:
  Matrix range     [1e+00, 5e+02]
  Objective range  [0e+00, 0e+00]
  QObjective range [6e-04, 4e-03]
  Bounds range     [1e+00, 1e+00]
  RHS range        [1e+00, 8e+02]
Presolve removed 229 rows and 211 columns
Presolve time: 0.05s
Presolved: 576 rows, 550 columns, 1899 nonzeros
Variable types: 0 continuous, 550 integer (269 binary)

Root relaxation: objective 0.000000e+00, 141 iterations, 0.00 seconds (0.00 work units)

    Nodes    |    Current Node    |     Objective Bounds      |     Work
 Expl Unexpl |  Obj  Depth IntInf | Incumbent    BestBd   Gap | It/Node Time

     0     0    0.00000    0   53          -    0.00000      -     -    0s
H    0     0                       3.3912724    0.00000   100%     -    0s
H    0     0                       2.7689212    0.00000   100%     -    0s
H    0     0                       2.7678047    0.00000   100%     -    0s
     0     0    0.00000    0   68    2.76780    0.00000   100%     -    0s
H    0     0                       2.7666882    0.00000   100%     -    0s
H    0     0                       2.7644552    0.00000   100%     -    0s
     0     0    0.14665    0   47    2.76446    0.14665  94.7%     -    0s
     0     0    0.14665    0   54    2.76446    0.14665  94.7%     -    0s
     0     0    0.64040    0   61    2.76446    0.64040  76.8%     -    0s
     0     0    0.64040    0   67    2.76446    0.64040  76.8%     -    0s
     0     0    0.93742    0   63    2.76446    0.93742  66.1%     -    0s
     0     0    0.94288    0   68    2.76446    0.94288  65.9%     -    0s
     0     0    1.47137    0   84    2.76446    1.47137  46.8%     -    0s
H    0     0                       2.4910442    1.47137  40.9%     -    0s
     0     0    1.47970    0   90    2.49104    1.47970  40.6%     -    0s
     0     0    1.79740    0  124    2.49104    1.79740  27.8%     -    0s
     0     0    1.79747    0  120    2.49104    1.79747  27.8%     -    0s
H    0     0                       2.4413256    1.79846  26.3%     -    0s
H    0     0                       2.3326291    1.79846  22.9%     -    0s
     0     2    1.84030    0  118    2.33263    1.84030  21.1%     -    0s
H   53    46                       2.3311962    1.85198  20.6%  17.5    0s
H   54    47                       2.2831181    1.85198  18.9%  17.2    0s
H  189   137                       2.2729327    1.87447  17.5%  15.6    0s
H  265   190                       2.2677128    1.87969  17.1%  17.7    0s
H  265   188                       2.2657539    1.87969  17.0%  17.7    0s
H  293   197                       2.2614093    1.88306  16.7%  17.9    0s
H  323   197                       2.2526341    1.90618  15.4%  18.3    0s
H  346   211                       2.2438592    1.90903  14.9%  18.8    0s
  1998   423    2.16684   23   86    2.24386    2.12622  5.24%  28.9    5s
  4066   197     cutoff   24         2.24386    2.21442  1.31%  31.7   10s

Cutting planes:
  Gomory: 7
  Cover: 52
  Implied bound: 250
  Clique: 1
  MIR: 63
  StrongCG: 1
  Flow cover: 460
  GUB cover: 15
  Zero half: 1
  RLT: 10
  Relax-and-lift: 31

Explored 4391 nodes (141385 simplex iterations) in 10.49 seconds (8.46 work units)
Thread count was 1 (of 4 available processors)

Solution count 10: 2.24386 2.25263 2.26141 ... 2.44133

Optimal solution found (tolerance 1.00e-04)
Best objective 2.243859157695e+00, best bound 2.243859157695e+00, gap 0.0000%
